graphs/queen13_13.col
p edge 169 3328
e 1 2
e 1 3
e 1 4
e 1 5
e 1 6
e 1 7
e 1 8
e 1 9
e 1 10
e 1 11
e 1 12
e 1 13
e 1 14
e 1 15
e 1 27
e 1 29
e 1 40
e 1 43
e 1 53
e 1 57
e 1 66
e 1 71
e 1 79
e 1 85
e 1 92
e 1 99
e 1 105
e 1 113
e 1 118
e 1 127
e 1 131
e 1 141
e 1 144
e 1 155
e 1 157
e 1 169
e 2 3
e 2 4
e 2 5
e 2 6
e 2 7
e 2 8
e 2 9
e 2 10
e 2 11
e 2 12
e 2 13
e 2 14
e 2 15
e 2 16
e 2 28
e 2 30
e 2 41
e 2 44
e 2 54
e 2 58
e 2 67
e 2 72
e 2 80
e 2 86
e 2 93
e 2 100
e 2 106
e 2 114
e 2 119
e 2 128
e 2 132
e 2 142
e 2 145
e 2 156
e 2 158
e 3 4
e 3 5
e 3 6
e 3 7
e 3 8
e 3 9
e 3 10
e 3 11
e 3 12
e 3 13
e 3 15
e 3 16
e 3 17
e 3 27
e 3 29
e 3 31
e 3 42
e 3 45
e 3 55
e 3 59
e 3 68
e 3 73
e 3 81
e 3 87
e 3 94
e 3 101
e 3 107
e 3 115
e 3 120
e 3 129
e 3 133
e 3 143
e 3 146
e 3 159
e 4 5
e 4 6
e 4 7
e 4 8
e 4 9
e 4 10
e 4 11
e 4 12
e 4 13
e 4 16
e 4 17
e 4 18
e 4 28
e 4 30
e 4 32
e 4 40
e 4 43
e 4 46
e 4 56
e 4 60
e 4 69
e 4 74
e 4 82
e 4 88
e 4 95
e 4 102
e 4 108
e 4 116
e 4 121
e 4 130
e 4 134
e 4 147
e 4 160
e 5 6
e 5 7
e 5 8
e 5 9
e 5 10
e 5 11
e 5 12
e 5 13
e 5 17
e 5 18
e 5 19
e 5 29
e 5 31
e 5 33
e 5 41
e 5 44
e 5 47
e 5 53
e 5 57
e 5 61
e 5 70
e 5 75
e 5 83
e 5 89
e 5 96
e 5 103
e 5 109
e 5 117
e 5 122
e 5 135
e 5 148
e 5 161
e 6 7
e 6 8
e 6 9
e 6 10
e 6 11
e 6 12
e 6 13
e 6 18
e 6 19
e 6 20
e 6 30
e 6 32
e 6 34
e 6 42
e 6 45
e 6 48
e 6 54
e 6 58
e 6 62
e 6 66
e 6 71
e 6 76
e 6 84
e 6 90
e 6 97
e 6 104
e 6 110
e 6 123
e 6 136
e 6 149
e 6 162
e 7 8
e 7 9
e 7 10
e 7 11
e 7 12
e 7 13
e 7 19
e 7 20
e 7 21
e 7 31
e 7 33
e 7 35
e 7 43
e 7 46
e 7 49
e 7 55
e 7 59
e 7 63
e 7 67
e 7 72
e 7 77
e 7 79
e 7 85
e 7 91
e 7 98
e 7 111
e 7 124
e 7 137
e 7 150
e 7 163
e 8 9
e 8 10
e 8 11
e 8 12
e 8 13
e 8 20
e 8 21
e 8 22
e 8 32
e 8 34
e 8 36
e 8 44
e 8 47
e 8 50
e 8 56
e 8 60
e 8 64
e 8 68
e 8 73
e 8 78
e 8 80
e 8 86
e 8 92
e 8 99
e 8 112
e 8 125
e 8 138
e 8 151
e 8 164
e 9 10
e 9 11
e 9 12
e 9 13
e 9 21
e 9 22
e 9 23
e 9 33
e 9 35
e 9 37
e 9 45
e 9 48
e 9 51
e 9 57
e 9 61
e 9 65
e 9 69
e 9 74
e 9 81
e 9 87
e 9 93
e 9 100
e 9 105
e 9 113
e 9 126
e 9 139
e 9 152
e 9 165
e 10 11
e 10 12
e 10 13
e 10 22
e 10 23
e 10 24
e 10 34
e 10 36
e 10 38
e 10 46
e 10 49
e 10 52
e 10 58
e 10 62
e 10 70
e 10 75
e 10 82
e 10 88
e 10 94
e 10 101
e 10 106
e 10 114
e 10 118
e 10 127
e 10 140
e 10 153
e 10 166
e 11 12
e 11 13
e 11 23
e 11 24
e 11 25
e 11 35
e 11 37
e 11 39
e 11 47
e 11 50
e 11 59
e 11 63
e 11 71
e 11 76
e 11 83
e 11 89
e 11 95
e 11 102
e 11 107
e 11 115
e 11 119
e 11 128
e 11 131
e 11 141
e 11 154
e 11 167
e 12 13
e 12 24
e 12 25
e 12 26
e 12 36
e 12 38
e 12 48
e 12 51
e 12 60
e 12 64
e 12 72
e 12 77
e 12 84
e 12 90
e 12 96
e 12 103
e 12 108
e 12 116
e 12 120
e 12 129
e 12 132
e 12 142
e 12 144
e 12 155
e 12 168
e 13 25
e 13 26
e 13 37
e 13 39
e 13 49
e 13 52
e 13 61
e 13 65
e 13 73
e 13 78
e 13 85
e 13 91
e 13 97
e 13 104
e 13 109
e 13 117
e 13 121
e 13 130
e 13 133
e 13 143
e 13 145
e 13 156
e 13 157
e 13 169
e 14 15
e 14 16
e 14 17
e 14 18
e 14 19
e 14 20
e 14 21
e 14 22
e 14 23
e 14 24
e 14 25
e 14 26
e 14 27
e 14 28
e 14 40
e 14 42
e 14 53
e 14 56
e 14 66
e 14 70
e 14 79
e 14 84
e 14 92
e 14 98
e 14 105
e 14 112
e 14 118
e 14 126
e 14 131
e 14 140
e 14 144
e 14 154
e 14 157
e 14 168
e 15 16
e 15 17
e 15 18
e 15 19
e 15 20
e 15 21
e 15 22
e 15 23
e 15 24
e 15 25
e 15 26
e 15 27
e 15 28
e 15 29
e 15 41
e 15 43
e 15 54
e 15 57
e 15 67
e 15 71
e 15 80
e 15 85
e 15 93
e 15 99
e 15 106
e 15 113
e 15 119
e 15 127
e 15 132
e 15 141
e 15 145
e 15 155
e 15 158
e 15 169
e 16 17
e 16 18
e 16 19
e 16 20
e 16 21
e 16 22
e 16 23
e 16 24
e 16 25
e 16 26
e 16 28
e 16 29
e 16 30
e 16 40
e 16 42
e 16 44
e 16 55
e 16 58
e 16 68
e 16 72
e 16 81
e 16 86
e 16 94
e 16 100
e 16 107
e 16 114
e 16 120
e 16 128
e 16 133
e 16 142
e 16 146
e 16 156
e 16 159
e 17 18
e 17 19
e 17 20
e 17 21
e 17 22
e 17 23
e 17 24
e 17 25
e 17 26
e 17 29
e 17 30
e 17 31
e 17 41
e 17 43
e 17 45
e 17 53
e 17 56
e 17 59
e 17 69
e 17 73
e 17 82
e 17 87
e 17 95
e 17 101
e 17 108
e 17 115
e 17 121
e 17 129
e 17 134
e 17 143
e 17 147
e 17 160
e 18 19
e 18 20
e 18 21
e 18 22
e 18 23
e 18 24
e 18 25
e 18 26
e 18 30
e 18 31
e 18 32
e 18 42
e 18 44
e 18 46
e 18 54
e 18 57
e 18 60
e 18 66
e 18 70
e 18 74
e 18 83
e 18 88
e 18 96
e 18 102
e 18 109
e 18 116
e 18 122
e 18 130
e 18 135
e 18 148
e 18 161
e 19 20
e 19 21
e 19 22
e 19 23
e 19 24
e 19 25
e 19 26
e 19 31
e 19 32
e 19 33
e 19 43
e 19 45
e 19 47
e 19 55
e 19 58
e 19 61
e 19 67
e 19 71
e 19 75
e 19 79
e 19 84
e 19 89
e 19 97
e 19 103
e 19 110
e 19 117
e 19 123
e 19 136
e 19 149
e 19 162
e 20 21
e 20 22
e 20 23
e 20 24
e 20 25
e 20 26
e 20 32
e 20 33
e 20 34
e 20 44
e 20 46
e 20 48
e 20 56
e 20 59
e 20 62
e 20 68
e 20 72
e 20 76
e 20 80
e 20 85
e 20 90
e 20 92
e 20 98
e 20 104
e 20 111
e 20 124
e 20 137
e 20 150
e 20 163
e 21 22
e 21 23
e 21 24
e 21 25
e 21 26
e 21 33
e 21 34
e 21 35
e 21 45
e 21 47
e 21 49
e 21 57
e 21 60
e 21 63
e 21 69
e 21 73
e 21 77
e 21 81
e 21 86
e 21 91
e 21 93
e 21 99
e 21 105
e 21 112
e 21 125
e 21 138
e 21 151
e 21 164
e 22 23
e 22 24
e 22 25
e 22 26
e 22 34
e 22 35
e 22 36
e 22 46
e 22 48
e 22 50
e 22 58
e 22 61
e 22 64
e 22 70
e 22 74
e 22 78
e 22 82
e 22 87
e 22 94
e 22 100
e 22 106
e 22 113
e 22 118
e 22 126
e 22 139
e 22 152
e 22 165
e 23 24
e 23 25
e 23 26
e 23 35
e 23 36
e 23 37
e 23 47
e 23 49
e 23 51
e 23 59
e 23 62
e 23 65
e 23 71
e 23 75
e 23 83
e 23 88
e 23 95
e 23 101
e 23 107
e 23 114
e 23 119
e 23 127
e 23 131
e 23 140
e 23 153
e 23 166
e 24 25
e 24 26
e 24 36
e 24 37
e 24 38
e 24 48
e 24 50
e 24 52
e 24 60
e 24 63
e 24 72
e 24 76
e 24 84
e 24 89
e 24 96
e 24 102
e 24 108
e 24 115
e 24 120
e 24 128
e 24 132
e 24 141
e 24 144
e 24 154
e 24 167
e 25 26
e 25 37
e 25 38
e 25 39
e 25 49
e 25 51
e 25 61
e 25 64
e 25 73
e 25 77
e 25 85
e 25 90
e 25 97
e 25 103
e 25 109
e 25 116
e 25 121
e 25 129
e 25 133
e 25 142
e 25 145
e 25 155
e 25 157
e 25 168
e 26 38
e 26 39
e 26 50
e 26 52
e 26 62
e 26 65
e 26 74
e 26 78
e 26 86
e 26 91
e 26 98
e 26 104
e 26 110
e 26 117
e 26 122
e 26 130
e 26 134
e 26 143
e 26 146
e 26 156
e 26 158
e 26 169
e 27 28
e 27 29
e 27 30
e 27 31
e 27 32
e 27 33
e 27 34
e 27 35
e 27 36
e 27 37
e 27 38
e 27 39
e 27 40
e 27 41
e 27 53
e 27 55
e 27 66
e 27 69
e 27 79
e 27 83
e 27 92
e 27 97
e 27 105
e 27 111
e 27 118
e 27 125
e 27 131
e 27 139
e 27 144
e 27 153
e 27 157
e 27 167
e 28 29
e 28 30
e 28 31
e 28 32
e 28 33
e 28 34
e 28 35
e 28 36
e 28 37
e 28 38
e 28 39
e 28 40
e 28 41
e 28 42
e 28 54
e 28 56
e 28 67
e 28 70
e 28 80
e 28 84
e 28 93
e 28 98
e 28 106
e 28 112
e 28 119
e 28 126
e 28 132
e 28 140
e 28 145
e 28 154
e 28 158
e 28 168
e 29 30
e 29 31
e 29 32
e 29 33
e 29 34
e 29 35
e 29 36
e 29 37
e 29 38
e 29 39
e 29 41
e 29 42
e 29 43
e 29 53
e 29 55
e 29 57
e 29 68
e 29 71
e 29 81
e 29 85
e 29 94
e 29 99
e 29 107
e 29 113
e 29 120
e 29 127
e 29 133
e 29 141
e 29 146
e 29 155
e 29 159
e 29 169
e 30 31
e 30 32
e 30 33
e 30 34
e 30 35
e 30 36
e 30 37
e 30 38
e 30 39
e 30 42
e 30 43
e 30 44
e 30 54
e 30 56
e 30 58
e 30 66
e 30 69
e 30 72
e 30 82
e 30 86
e 30 95
e 30 100
e 30 108
e 30 114
e 30 121
e 30 128
e 30 134
e 30 142
e 30 147
e 30 156
e 30 160
e 31 32
e 31 33
e 31 34
e 31 35
e 31 36
e 31 37
e 31 38
e 31 39
e 31 43
e 31 44
e 31 45
e 31 55
e 31 57
e 31 59
e 31 67
e 31 70
e 31 73
e 31 79
e 31 83
e 31 87
e 31 96
e 31 101
e 31 109
e 31 115
e 31 122
e 31 129
e 31 135
e 31 143
e 31 148
e 31 161
e 32 33
e 32 34
e 32 35
e 32 36
e 32 37
e 32 38
e 32 39
e 32 44
e 32 45
e 32 46
e 32 56
e 32 58
e 32 60
e 32 68
e 32 71
e 32 74
e 32 80
e 32 84
e 32 88
e 32 92
e 32 97
e 32 102
e 32 110
e 32 116
e 32 123
e 32 130
e 32 136
e 32 149
e 32 162
e 33 34
e 33 35
e 33 36
e 33 37
e 33 38
e 33 39
e 33 45
e 33 46
e 33 47
e 33 57
e 33 59
e 33 61
e 33 69
e 33 72
e 33 75
e 33 81
e 33 85
e 33 89
e 33 93
e 33 98
e 33 103
e 33 105
e 33 111
e 33 117
e 33 124
e 33 137
e 33 150
e 33 163
e 34 35
e 34 36
e 34 37
e 34 38
e 34 39
e 34 46
e 34 47
e 34 48
e 34 58
e 34 60
e 34 62
e 34 70
e 34 73
e 34 76
e 34 82
e 34 86
e 34 90
e 34 94
e 34 99
e 34 104
e 34 106
e 34 112
e 34 118
e 34 125
e 34 138
e 34 151
e 34 164
e 35 36
e 35 37
e 35 38
e 35 39
e 35 47
e 35 48
e 35 49
e 35 59
e 35 61
e 35 63
e 35 71
e 35 74
e 35 77
e 35 83
e 35 87
e 35 91
e 35 95
e 35 100
e 35 107
e 35 113
e 35 119
e 35 126
e 35 131
e 35 139
e 35 152
e 35 165
e 36 37
e 36 38
e 36 39
e 36 48
e 36 49
e 36 50
e 36 60
e 36 62
e 36 64
e 36 72
e 36 75
e 36 78
e 36 84
e 36 88
e 36 96
e 36 101
e 36 108
e 36 114
e 36 120
e 36 127
e 36 132
e 36 140
e 36 144
e 36 153
e 36 166
e 37 38
e 37 39
e 37 49
e 37 50
e 37 51
e 37 61
e 37 63
e 37 65
e 37 73
e 37 76
e 37 85
e 37 89
e 37 97
e 37 102
e 37 109
e 37 115
e 37 121
e 37 128
e 37 133
e 37 141
e 37 145
e 37 154
e 37 157
e 37 167
e 38 39
e 38 50
e 38 51
e 38 52
e 38 62
e 38 64
e 38 74
e 38 77
e 38 86
e 38 90
e 38 98
e 38 103
e 38 110
e 38 116
e 38 122
e 38 129
e 38 134
e 38 142
e 38 146
e 38 155
e 38 158
e 38 168
e 39 51
e 39 52
e 39 63
e 39 65
e 39 75
e 39 78
e 39 87
e 39 91
e 39 99
e 39 104
e 39 111
e 39 117
e 39 123
e 39 130
e 39 135
e 39 143
e 39 147
e 39 156
e 39 159
e 39 169
e 40 41
e 40 42
e 40 43
e 40 44
e 40 45
e 40 46
e 40 47
e 40 48
e 40 49
e 40 50
e 40 51
e 40 52
e 40 53
e 40 54
e 40 66
e 40 68
e 40 79
e 40 82
e 40 92
e 40 96
e 40 105
e 40 110
e 40 118
e 40 124
e 40 131
e 40 138
e 40 144
e 40 152
e 40 157
e 40 166
e 41 42
e 41 43
e 41 44
e 41 45
e 41 46
e 41 47
e 41 48
e 41 49
e 41 50
e 41 51
e 41 52
e 41 53
e 41 54
e 41 55
e 41 67
e 41 69
e 41 80
e 41 83
e 41 93
e 41 97
e 41 106
e 41 111
e 41 119
e 41 125
e 41 132
e 41 139
e 41 145
e 41 153
e 41 158
e 41 167
e 42 43
e 42 44
e 42 45
e 42 46
e 42 47
e 42 48
e 42 49
e 42 50
e 42 51
e 42 52
e 42 54
e 42 55
e 42 56
e 42 66
e 42 68
e 42 70
e 42 81
e 42 84
e 42 94
e 42 98
e 42 107
e 42 112
e 42 120
e 42 126
e 42 133
e 42 140
e 42 146
e 42 154
e 42 159
e 42 168
e 43 44
e 43 45
e 43 46
e 43 47
e 43 48
e 43 49
e 43 50
e 43 51
e 43 52
e 43 55
e 43 56
e 43 57
e 43 67
e 43 69
e 43 71
e 43 79
e 43 82
e 43 85
e 43 95
e 43 99
e 43 108
e 43 113
e 43 121
e 43 127
e 43 134
e 43 141
e 43 147
e 43 155
e 43 160
e 43 169
e 44 45
e 44 46
e 44 47
e 44 48
e 44 49
e 44 50
e 44 51
e 44 52
e 44 56
e 44 57
e 44 58
e 44 68
e 44 70
e 44 72
e 44 80
e 44 83
e 44 86
e 44 92
e 44 96
e 44 100
e 44 109
e 44 114
e 44 122
e 44 128
e 44 135
e 44 142
e 44 148
e 44 156
e 44 161
e 45 46
e 45 47
e 45 48
e 45 49
e 45 50
e 45 51
e 45 52
e 45 57
e 45 58
e 45 59
e 45 69
e 45 71
e 45 73
e 45 81
e 45 84
e 45 87
e 45 93
e 45 97
e 45 101
e 45 105
e 45 110
e 45 115
e 45 123
e 45 129
e 45 136
e 45 143
e 45 149
e 45 162
e 46 47
e 46 48
e 46 49
e 46 50
e 46 51
e 46 52
e 46 58
e 46 59
e 46 60
e 46 70
e 46 72
e 46 74
e 46 82
e 46 85
e 46 88
e 46 94
e 46 98
e 46 102
e 46 106
e 46 111
e 46 116
e 46 118
e 46 124
e 46 130
e 46 137
e 46 150
e 46 163
e 47 48
e 47 49
e 47 50
e 47 51
e 47 52
e 47 59
e 47 60
e 47 61
e 47 71
e 47 73
e 47 75
e 47 83
e 47 86
e 47 89
e 47 95
e 47 99
e 47 103
e 47 107
e 47 112
e 47 117
e 47 119
e 47 125
e 47 131
e 47 138
e 47 151
e 47 164
e 48 49
e 48 50
e 48 51
e 48 52
e 48 60
e 48 61
e 48 62
e 48 72
e 48 74
e 48 76
e 48 84
e 48 87
e 48 90
e 48 96
e 48 100
e 48 104
e 48 108
e 48 113
e 48 120
e 48 126
e 48 132
e 48 139
e 48 144
e 48 152
e 48 165
e 49 50
e 49 51
e 49 52
e 49 61
e 49 62
e 49 63
e 49 73
e 49 75
e 49 77
e 49 85
e 49 88
e 49 91
e 49 97
e 49 101
e 49 109
e 49 114
e 49 121
e 49 127
e 49 133
e 49 140
e 49 145
e 49 153
e 49 157
e 49 166
e 50 51
e 50 52
e 50 62
e 50 63
e 50 64
e 50 74
e 50 76
e 50 78
e 50 86
e 50 89
e 50 98
e 50 102
e 50 110
e 50 115
e 50 122
e 50 128
e 50 134
e 50 141
e 50 146
e 50 154
e 50 158
e 50 167
e 51 52
e 51 63
e 51 64
e 51 65
e 51 75
e 51 77
e 51 87
e 51 90
e 51 99
e 51 103
e 51 111
e 51 116
e 51 123
e 51 129
e 51 135
e 51 142
e 51 147
e 51 155
e 51 159
e 51 168
e 52 64
e 52 65
e 52 76
e 52 78
e 52 88
e 52 91
e 52 100
e 52 104
e 52 112
e 52 117
e 52 124
e 52 130
e 52 136
e 52 143
e 52 148
e 52 156
e 52 160
e 52 169
e 53 54
e 53 55
e 53 56
e 53 57
e 53 58
e 53 59
e 53 60
e 53 61
e 53 62
e 53 63
e 53 64
e 53 65
e 53 66
e 53 67
e 53 79
e 53 81
e 53 92
e 53 95
e 53 105
e 53 109
e 53 118
e 53 123
e 53 131
e 53 137
e 53 144
e 53 151
e 53 157
e 53 165
e 54 55
e 54 56
e 54 57
e 54 58
e 54 59
e 54 60
e 54 61
e 54 62
e 54 63
e 54 64
e 54 65
e 54 66
e 54 67
e 54 68
e 54 80
e 54 82
e 54 93
e 54 96
e 54 106
e 54 110
e 54 119
e 54 124
e 54 132
e 54 138
e 54 145
e 54 152
e 54 158
e 54 166
e 55 56
e 55 57
e 55 58
e 55 59
e 55 60
e 55 61
e 55 62
e 55 63
e 55 64
e 55 65
e 55 67
e 55 68
e 55 69
e 55 79
e 55 81
e 55 83
e 55 94
e 55 97
e 55 107
e 55 111
e 55 120
e 55 125
e 55 133
e 55 139
e 55 146
e 55 153
e 55 159
e 55 167
e 56 57
e 56 58
e 56 59
e 56 60
e 56 61
e 56 62
e 56 63
e 56 64
e 56 65
e 56 68
e 56 69
e 56 70
e 56 80
e 56 82
e 56 84
e 56 92
e 56 95
e 56 98
e 56 108
e 56 112
e 56 121
e 56 126
e 56 134
e 56 140
e 56 147
e 56 154
e 56 160
e 56 168
e 57 58
e 57 59
e 57 60
e 57 61
e 57 62
e 57 63
e 57 64
e 57 65
e 57 69
e 57 70
e 57 71
e 57 81
e 57 83
e 57 85
e 57 93
e 57 96
e 57 99
e 57 105
e 57 109
e 57 113
e 57 122
e 57 127
e 57 135
e 57 141
e 57 148
e 57 155
e 57 161
e 57 169
e 58 59
e 58 60
e 58 61
e 58 62
e 58 63
e 58 64
e 58 65
e 58 70
e 58 71
e 58 72
e 58 82
e 58 84
e 58 86
e 58 94
e 58 97
e 58 100
e 58 106
e 58 110
e 58 114
e 58 118
e 58 123
e 58 128
e 58 136
e 58 142
e 58 149
e 58 156
e 58 162
e 59 60
e 59 61
e 59 62
e 59 63
e 59 64
e 59 65
e 59 71
e 59 72
e 59 73
e 59 83
e 59 85
e 59 87
e 59 95
e 59 98
e 59 101
e 59 107
e 59 111
e 59 115
e 59 119
e 59 124
e 59 129
e 59 131
e 59 137
e 59 143
e 59 150
e 59 163
e 60 61
e 60 62
e 60 63
e 60 64
e 60 65
e 60 72
e 60 73
e 60 74
e 60 84
e 60 86
e 60 88
e 60 96
e 60 99
e 60 102
e 60 108
e 60 112
e 60 116
e 60 120
e 60 125
e 60 130
e 60 132
e 60 138
e 60 144
e 60 151
e 60 164
e 61 62
e 61 63
e 61 64
e 61 65
e 61 73
e 61 74
e 61 75
e 61 85
e 61 87
e 61 89
e 61 97
e 61 100
e 61 103
e 61 109
e 61 113
e 61 117
e 61 121
e 61 126
e 61 133
e 61 139
e 61 145
e 61 152
e 61 157
e 61 165
e 62 63
e 62 64
e 62 65
e 62 74
e 62 75
e 62 76
e 62 86
e 62 88
e 62 90
e 62 98
e 62 101
e 62 104
e 62 110
e 62 114
e 62 122
e 62 127
e 62 134
e 62 140
e 62 146
e 62 153
e 62 158
e 62 166
e 63 64
e 63 65
e 63 75
e 63 76
e 63 77
e 63 87
e 63 89
e 63 91
e 63 99
e 63 102
e 63 111
e 63 115
e 63 123
e 63 128
e 63 135
e 63 141
e 63 147
e 63 154
e 63 159
e 63 167
e 64 65
e 64 76
e 64 77
e 64 78
e 64 88
e 64 90
e 64 100
e 64 103
e 64 112
e 64 116
e 64 124
e 64 129
e 64 136
e 64 142
e 64 148
e 64 155
e 64 160
e 64 168
e 65 77
e 65 78
e 65 89
e 65 91
e 65 101
e 65 104
e 65 113
e 65 117
e 65 125
e 65 130
e 65 137
e 65 143
e 65 149
e 65 156
e 65 161
e 65 169
e 66 67
e 66 68
e 66 69
e 66 70
e 66 71
e 66 72
e 66 73
e 66 74
e 66 75
e 66 76
e 66 77
e 66 78
e 66 79
e 66 80
e 66 92
e 66 94
e 66 105
e 66 108
e 66 118
e 66 122
e 66 131
e 66 136
e 66 144
e 66 150
e 66 157
e 66 164
e 67 68
e 67 69
e 67 70
e 67 71
e 67 72
e 67 73
e 67 74
e 67 75
e 67 76
e 67 77
e 67 78
e 67 79
e 67 80
e 67 81
e 67 93
e 67 95
e 67 106
e 67 109
e 67 119
e 67 123
e 67 132
e 67 137
e 67 145
e 67 151
e 67 158
e 67 165
e 68 69
e 68 70
e 68 71
e 68 72
e 68 73
e 68 74
e 68 75
e 68 76
e 68 77
e 68 78
e 68 80
e 68 81
e 68 82
e 68 92
e 68 94
e 68 96
e 68 107
e 68 110
e 68 120
e 68 124
e 68 133
e 68 138
e 68 146
e 68 152
e 68 159
e 68 166
e 69 70
e 69 71
e 69 72
e 69 73
e 69 74
e 69 75
e 69 76
e 69 77
e 69 78
e 69 81
e 69 82
e 69 83
e 69 93
e 69 95
e 69 97
e 69 105
e 69 108
e 69 111
e 69 121
e 69 125
e 69 134
e 69 139
e 69 147
e 69 153
e 69 160
e 69 167
e 70 71
e 70 72
e 70 73
e 70 74
e 70 75
e 70 76
e 70 77
e 70 78
e 70 82
e 70 83
e 70 84
e 70 94
e 70 96
e 70 98
e 70 106
e 70 109
e 70 112
e 70 118
e 70 122
e 70 126
e 70 135
e 70 140
e 70 148
e 70 154
e 70 161
e 70 168
e 71 72
e 71 73
e 71 74
e 71 75
e 71 76
e 71 77
e 71 78
e 71 83
e 71 84
e 71 85
e 71 95
e 71 97
e 71 99
e 71 107
e 71 110
e 71 113
e 71 119
e 71 123
e 71 127
e 71 131
e 71 136
e 71 141
e 71 149
e 71 155
e 71 162
e 71 169
e 72 73
e 72 74
e 72 75
e 72 76
e 72 77
e 72 78
e 72 84
e 72 85
e 72 86
e 72 96
e 72 98
e 72 100
e 72 108
e 72 111
e 72 114
e 72 120
e 72 124
e 72 128
e 72 132
e 72 137
e 72 142
e 72 144
e 72 150
e 72 156
e 72 163
e 73 74
e 73 75
e 73 76
e 73 77
e 73 78
e 73 85
e 73 86
e 73 87
e 73 97
e 73 99
e 73 101
e 73 109
e 73 112
e 73 115
e 73 121
e 73 125
e 73 129
e 73 133
e 73 138
e 73 143
e 73 145
e 73 151
e 73 157
e 73 164
e 74 75
e 74 76
e 74 77
e 74 78
e 74 86
e 74 87
e 74 88
e 74 98
e 74 100
e 74 102
e 74 110
e 74 113
e 74 116
e 74 122
e 74 126
e 74 130
e 74 134
e 74 139
e 74 146
e 74 152
e 74 158
e 74 165
e 75 76
e 75 77
e 75 78
e 75 87
e 75 88
e 75 89
e 75 99
e 75 101
e 75 103
e 75 111
e 75 114
e 75 117
e 75 123
e 75 127
e 75 135
e 75 140
e 75 147
e 75 153
e 75 159
e 75 166
e 76 77
e 76 78
e 76 88
e 76 89
e 76 90
e 76 100
e 76 102
e 76 104
e 76 112
e 76 115
e 76 124
e 76 128
e 76 136
e 76 141
e 76 148
e 76 154
e 76 160
e 76 167
e 77 78
e 77 89
e 77 90
e 77 91
e 77 101
e 77 103
e 77 113
e 77 116
e 77 125
e 77 129
e 77 137
e 77 142
e 77 149
e 77 155
e 77 161
e 77 168
e 78 90
e 78 91
e 78 102
e 78 104
e 78 114
e 78 117
e 78 126
e 78 130
e 78 138
e 78 143
e 78 150
e 78 156
e 78 162
e 78 169
e 79 80
e 79 81
e 79 82
e 79 83
e 79 84
e 79 85
e 79 86
e 79 87
e 79 88
e 79 89
e 79 90
e 79 91
e 79 92
e 79 93
e 79 105
e 79 107
e 79 118
e 79 121
e 79 131
e 79 135
e 79 144
e 79 149
e 79 157
e 79 163
e 80 81
e 80 82
e 80 83
e 80 84
e 80 85
e 80 86
e 80 87
e 80 88
e 80 89
e 80 90
e 80 91
e 80 92
e 80 93
e 80 94
e 80 106
e 80 108
e 80 119
e 80 122
e 80 132
e 80 136
e 80 145
e 80 150
e 80 158
e 80 164
e 81 82
e 81 83
e 81 84
e 81 85
e 81 86
e 81 87
e 81 88
e 81 89
e 81 90
e 81 91
e 81 93
e 81 94
e 81 95
e 81 105
e 81 107
e 81 109
e 81 120
e 81 123
e 81 133
e 81 137
e 81 146
e 81 151
e 81 159
e 81 165
e 82 83
e 82 84
e 82 85
e 82 86
e 82 87
e 82 88
e 82 89
e 82 90
e 82 91
e 82 94
e 82 95
e 82 96
e 82 106
e 82 108
e 82 110
e 82 118
e 82 121
e 82 124
e 82 134
e 82 138
e 82 147
e 82 152
e 82 160
e 82 166
e 83 84
e 83 85
e 83 86
e 83 87
e 83 88
e 83 89
e 83 90
e 83 91
e 83 95
e 83 96
e 83 97
e 83 107
e 83 109
e 83 111
e 83 119
e 83 122
e 83 125
e 83 131
e 83 135
e 83 139
e 83 148
e 83 153
e 83 161
e 83 167
e 84 85
e 84 86
e 84 87
e 84 88
e 84 89
e 84 90
e 84 91
e 84 96
e 84 97
e 84 98
e 84 108
e 84 110
e 84 112
e 84 120
e 84 123
e 84 126
e 84 132
e 84 136
e 84 140
e 84 144
e 84 149
e 84 154
e 84 162
e 84 168
e 85 86
e 85 87
e 85 88
e 85 89
e 85 90
e 85 91
e 85 97
e 85 98
e 85 99
e 85 109
e 85 111
e 85 113
e 85 121
e 85 124
e 85 127
e 85 133
e 85 137
e 85 141
e 85 145
e 85 150
e 85 155
e 85 157
e 85 163
e 85 169
e 86 87
e 86 88
e 86 89
e 86 90
e 86 91
e 86 98
e 86 99
e 86 100
e 86 110
e 86 112
e 86 114
e 86 122
e 86 125
e 86 128
e 86 134
e 86 138
e 86 142
e 86 146
e 86 151
e 86 156
e 86 158
e 86 164
e 87 88
e 87 89
e 87 90
e 87 91
e 87 99
e 87 100
e 87 101
e 87 111
e 87 113
e 87 115
e 87 123
e 87 126
e 87 129
e 87 135
e 87 139
e 87 143
e 87 147
e 87 152
e 87 159
e 87 165
e 88 89
e 88 90
e 88 91
e 88 100
e 88 101
e 88 102
e 88 112
e 88 114
e 88 116
e 88 124
e 88 127
e 88 130
e 88 136
e 88 140
e 88 148
e 88 153
e 88 160
e 88 166
e 89 90
e 89 91
e 89 101
e 89 102
e 89 103
e 89 113
e 89 115
e 89 117
e 89 125
e 89 128
e 89 137
e 89 141
e 89 149
e 89 154
e 89 161
e 89 167
e 90 91
e 90 102
e 90 103
e 90 104
e 90 114
e 90 116
e 90 126
e 90 129
e 90 138
e 90 142
e 90 150
e 90 155
e 90 162
e 90 168
e 91 103
e 91 104
e 91 115
e 91 117
e 91 127
e 91 130
e 91 139
e 91 143
e 91 151
e 91 156
e 91 163
e 91 169
e 92 93
e 92 94
e 92 95
e 92 96
e 92 97
e 92 98
e 92 99
e 92 100
e 92 101
e 92 102
e 92 103
e 92 104
e 92 105
e 92 106
e 92 118
e 92 120
e 92 131
e 92 134
e 92 144
e 92 148
e 92 157
e 92 162
e 93 94
e 93 95
e 93 96
e 93 97
e 93 98
e 93 99
e 93 100
e 93 101
e 93 102
e 93 103
e 93 104
e 93 105
e 93 106
e 93 107
e 93 119
e 93 121
e 93 132
e 93 135
e 93 145
e 93 149
e 93 158
e 93 163
e 94 95
e 94 96
e 94 97
e 94 98
e 94 99
e 94 100
e 94 101
e 94 102
e 94 103
e 94 104
e 94 106
e 94 107
e 94 108
e 94 118
e 94 120
e 94 122
e 94 133
e 94 136
e 94 146
e 94 150
e 94 159
e 94 164
e 95 96
e 95 97
e 95 98
e 95 99
e 95 100
e 95 101
e 95 102
e 95 103
e 95 104
e 95 107
e 95 108
e 95 109
e 95 119
e 95 121
e 95 123
e 95 131
e 95 134
e 95 137
e 95 147
e 95 151
e 95 160
e 95 165
e 96 97
e 96 98
e 96 99
e 96 100
e 96 101
e 96 102
e 96 103
e 96 104
e 96 108
e 96 109
e 96 110
e 96 120
e 96 122
e 96 124
e 96 132
e 96 135
e 96 138
e 96 144
e 96 148
e 96 152
e 96 161
e 96 166
e 97 98
e 97 99
e 97 100
e 97 101
e 97 102
e 97 103
e 97 104
e 97 109
e 97 110
e 97 111
e 97 121
e 97 123
e 97 125
e 97 133
e 97 136
e 97 139
e 97 145
e 97 149
e 97 153
e 97 157
e 97 162
e 97 167
e 98 99
e 98 100
e 98 101
e 98 102
e 98 103
e 98 104
e 98 110
e 98 111
e 98 112
e 98 122
e 98 124
e 98 126
e 98 134
e 98 137
e 98 140
e 98 146
e 98 150
e 98 154
e 98 158
e 98 163
e 98 168
e 99 100
e 99 101
e 99 102
e 99 103
e 99 104
e 99 111
e 99 112
e 99 113
e 99 123
e 99 125
e 99 127
e 99 135
e 99 138
e 99 141
e 99 147
e 99 151
e 99 155
e 99 159
e 99 164
e 99 169
e 100 101
e 100 102
e 100 103
e 100 104
e 100 112
e 100 113
e 100 114
e 100 124
e 100 126
e 100 128
e 100 136
e 100 139
e 100 142
e 100 148
e 100 152
e 100 156
e 100 160
e 100 165
e 101 102
e 101 103
e 101 104
e 101 113
e 101 114
e 101 115
e 101 125
e 101 127
e 101 129
e 101 137
e 101 140
e 101 143
e 101 149
e 101 153
e 101 161
e 101 166
e 102 103
e 102 104
e 102 114
e 102 115
e 102 116
e 102 126
e 102 128
e 102 130
e 102 138
e 102 141
e 102 150
e 102 154
e 102 162
e 102 167
e 103 104
e 103 115
e 103 116
e 103 117
e 103 127
e 103 129
e 103 139
e 103 142
e 103 151
e 103 155
e 103 163
e 103 168
e 104 116
e 104 117
e 104 128
e 104 130
e 104 140
e 104 143
e 104 152
e 104 156
e 104 164
e 104 169
e 105 106
e 105 107
e 105 108
e 105 109
e 105 110
e 105 111
e 105 112
e 105 113
e 105 114
e 105 115
e 105 116
e 105 117
e 105 118
e 105 119
e 105 131
e 105 133
e 105 144
e 105 147
e 105 157
e 105 161
e 106 107
e 106 108
e 106 109
e 106 110
e 106 111
e 106 112
e 106 113
e 106 114
e 106 115
e 106 116
e 106 117
e 106 118
e 106 119
e 106 120
e 106 132
e 106 134
e 106 145
e 106 148
e 106 158
e 106 162
e 107 108
e 107 109
e 107 110
e 107 111
e 107 112
e 107 113
e 107 114
e 107 115
e 107 116
e 107 117
e 107 119
e 107 120
e 107 121
e 107 131
e 107 133
e 107 135
e 107 146
e 107 149
e 107 159
e 107 163
e 108 109
e 108 110
e 108 111
e 108 112
e 108 113
e 108 114
e 108 115
e 108 116
e 108 117
e 108 120
e 108 121
e 108 122
e 108 132
e 108 134
e 108 136
e 108 144
e 108 147
e 108 150
e 108 160
e 108 164
e 109 110
e 109 111
e 109 112
e 109 113
e 109 114
e 109 115
e 109 116
e 109 117
e 109 121
e 109 122
e 109 123
e 109 133
e 109 135
e 109 137
e 109 145
e 109 148
e 109 151
e 109 157
e 109 161
e 109 165
e 110 111
e 110 112
e 110 113
e 110 114
e 110 115
e 110 116
e 110 117
e 110 122
e 110 123
e 110 124
e 110 134
e 110 136
e 110 138
e 110 146
e 110 149
e 110 152
e 110 158
e 110 162
e 110 166
e 111 112
e 111 113
e 111 114
e 111 115
e 111 116
e 111 117
e 111 123
e 111 124
e 111 125
e 111 135
e 111 137
e 111 139
e 111 147
e 111 150
e 111 153
e 111 159
e 111 163
e 111 167
e 112 113
e 112 114
e 112 115
e 112 116
e 112 117
e 112 124
e 112 125
e 112 126
e 112 136
e 112 138
e 112 140
e 112 148
e 112 151
e 112 154
e 112 160
e 112 164
e 112 168
e 113 114
e 113 115
e 113 116
e 113 117
e 113 125
e 113 126
e 113 127
e 113 137
e 113 139
e 113 141
e 113 149
e 113 152
e 113 155
e 113 161
e 113 165
e 113 169
e 114 115
e 114 116
e 114 117
e 114 126
e 114 127
e 114 128
e 114 138
e 114 140
e 114 142
e 114 150
e 114 153
e 114 156
e 114 162
e 114 166
e 115 116
e 115 117
e 115 127
e 115 128
e 115 129
e 115 139
e 115 141
e 115 143
e 115 151
e 115 154
e 115 163
e 115 167
e 116 117
e 116 128
e 116 129
e 116 130
e 116 140
e 116 142
e 116 152
e 116 155
e 116 164
e 116 168
e 117 129
e 117 130
e 117 141
e 117 143
e 117 153
e 117 156
e 117 165
e 117 169
e 118 119
e 118 120
e 118 121
e 118 122
e 118 123
e 118 124
e 118 125
e 118 126
e 118 127
e 118 128
e 118 129
e 118 130
e 118 131
e 118 132
e 118 144
e 118 146
e 118 157
e 118 160
e 119 120
e 119 121
e 119 122
e 119 123
e 119 124
e 119 125
e 119 126
e 119 127
e 119 128
e 119 129
e 119 130
e 119 131
e 119 132
e 119 133
e 119 145
e 119 147
e 119 158
e 119 161
e 120 121
e 120 122
e 120 123
e 120 124
e 120 125
e 120 126
e 120 127
e 120 128
e 120 129
e 120 130
e 120 132
e 120 133
e 120 134
e 120 144
e 120 146
e 120 148
e 120 159
e 120 162
e 121 122
e 121 123
e 121 124
e 121 125
e 121 126
e 121 127
e 121 128
e 121 129
e 121 130
e 121 133
e 121 134
e 121 135
e 121 145
e 121 147
e 121 149
e 121 157
e 121 160
e 121 163
e 122 123
e 122 124
e 122 125
e 122 126
e 122 127
e 122 128
e 122 129
e 122 130
e 122 134
e 122 135
e 122 136
e 122 146
e 122 148
e 122 150
e 122 158
e 122 161
e 122 164
e 123 124
e 123 125
e 123 126
e 123 127
e 123 128
e 123 129
e 123 130
e 123 135
e 123 136
e 123 137
e 123 147
e 123 149
e 123 151
e 123 159
e 123 162
e 123 165
e 124 125
e 124 126
e 124 127
e 124 128
e 124 129
e 124 130
e 124 136
e 124 137
e 124 138
e 124 148
e 124 150
e 124 152
e 124 160
e 124 163
e 124 166
e 125 126
e 125 127
e 125 128
e 125 129
e 125 130
e 125 137
e 125 138
e 125 139
e 125 149
e 125 151
e 125 153
e 125 161
e 125 164
e 125 167
e 126 127
e 126 128
e 126 129
e 126 130
e 126 138
e 126 139
e 126 140
e 126 150
e 126 152
e 126 154
e 126 162
e 126 165
e 126 168
e 127 128
e 127 129
e 127 130
e 127 139
e 127 140
e 127 141
e 127 151
e 127 153
e 127 155
e 127 163
e 127 166
e 127 169
e 128 129
e 128 130
e 128 140
e 128 141
e 128 142
e 128 152
e 128 154
e 128 156
e 128 164
e 128 167
e 129 130
e 129 141
e 129 142
e 129 143
e 129 153
e 129 155
e 129 165
e 129 168
e 130 142
e 130 143
e 130 154
e 130 156
e 130 166
e 130 169
e 131 132
e 131 133
e 131 134
e 131 135
e 131 136
e 131 137
e 131 138
e 131 139
e 131 140
e 131 141
e 131 142
e 131 143
e 131 144
e 131 145
e 131 157
e 131 159
e 132 133
e 132 134
e 132 135
e 132 136
e 132 137
e 132 138
e 132 139
e 132 140
e 132 141
e 132 142
e 132 143
e 132 144
e 132 145
e 132 146
e 132 158
e 132 160
e 133 134
e 133 135
e 133 136
e 133 137
e 133 138
e 133 139
e 133 140
e 133 141
e 133 142
e 133 143
e 133 145
e 133 146
e 133 147
e 133 157
e 133 159
e 133 161
e 134 135
e 134 136
e 134 137
e 134 138
e 134 139
e 134 140
e 134 141
e 134 142
e 134 143
e 134 146
e 134 147
e 134 148
e 134 158
e 134 160
e 134 162
e 135 136
e 135 137
e 135 138
e 135 139
e 135 140
e 135 141
e 135 142
e 135 143
e 135 147
e 135 148
e 135 149
e 135 159
e 135 161
e 135 163
e 136 137
e 136 138
e 136 139
e 136 140
e 136 141
e 136 142
e 136 143
e 136 148
e 136 149
e 136 150
e 136 160
e 136 162
e 136 164
e 137 138
e 137 139
e 137 140
e 137 141
e 137 142
e 137 143
e 137 149
e 137 150
e 137 151
e 137 161
e 137 163
e 137 165
e 138 139
e 138 140
e 138 141
e 138 142
e 138 143
e 138 150
e 138 151
e 138 152
e 138 162
e 138 164
e 138 166
e 139 140
e 139 141
e 139 142
e 139 143
e 139 151
e 139 152
e 139 153
e 139 163
e 139 165
e 139 167
e 140 141
e 140 142
e 140 143
e 140 152
e 140 153
e 140 154
e 140 164
e 140 166
e 140 168
e 141 142
e 141 143
e 141 153
e 141 154
e 141 155
e 141 165
e 141 167
e 141 169
e 142 143
e 142 154
e 142 155
e 142 156
e 142 166
e 142 168
e 143 155
e 143 156
e 143 167
e 143 169
e 144 145
e 144 146
e 144 147
e 144 148
e 144 149
e 144 150
e 144 151
e 144 152
e 144 153
e 144 154
e 144 155
e 144 156
e 144 157
e 144 158
e 145 146
e 145 147
e 145 148
e 145 149
e 145 150
e 145 151
e 145 152
e 145 153
e 145 154
e 145 155
e 145 156
e 145 157
e 145 158
e 145 159
e 146 147
e 146 148
e 146 149
e 146 150
e 146 151
e 146 152
e 146 153
e 146 154
e 146 155
e 146 156
e 146 158
e 146 159
e 146 160
e 147 148
e 147 149
e 147 150
e 147 151
e 147 152
e 147 153
e 147 154
e 147 155
e 147 156
e 147 159
e 147 160
e 147 161
e 148 149
e 148 150
e 148 151
e 148 152
e 148 153
e 148 154
e 148 155
e 148 156
e 148 160
e 148 161
e 148 162
e 149 150
e 149 151
e 149 152
e 149 153
e 149 154
e 149 155
e 149 156
e 149 161
e 149 162
e 149 163
e 150 151
e 150 152
e 150 153
e 150 154
e 150 155
e 150 156
e 150 162
e 150 163
e 150 164
e 151 152
e 151 153
e 151 154
e 151 155
e 151 156
e 151 163
e 151 164
e 151 165
e 152 153
e 152 154
e 152 155
e 152 156
e 152 164
e 152 165
e 152 166
e 153 154
e 153 155
e 153 156
e 153 165
e 153 166
e 153 167
e 154 155
e 154 156
e 154 166
e 154 167
e 154 168
e 155 156
e 155 167
e 155 168
e 155 169
e 156 168
e 156 169
e 157 158
e 157 159
e 157 160
e 157 161
e 157 162
e 157 163
e 157 164
e 157 165
e 157 166
e 157 167
e 157 168
e 157 169
e 158 159
e 158 160
e 158 161
e 158 162
e 158 163
e 158 164
e 158 165
e 158 166
e 158 167
e 158 168
e 158 169
e 159 160
e 159 161
e 159 162
e 159 163
e 159 164
e 159 165
e 159 166
e 159 167
e 159 168
e 159 169
e 160 161
e 160 162
e 160 163
e 160 164
e 160 165
e 160 166
e 160 167
e 160 168
e 160 169
e 161 162
e 161 163
e 161 164
e 161 165
e 161 166
e 161 167
e 161 168
e 161 169
e 162 163
e 162 164
e 162 165
e 162 166
e 162 167
e 162 168
e 162 169
e 163 164
e 163 165
e 163 166
e 163 167
e 163 168
e 163 169
e 164 165
e 164 166
e 164 167
e 164 168
e 164 169
e 165 166
e 165 167
e 165 168
e 165 169
e 166 167
e 166 168
e 166 169
e 167 168
e 167 169
e 168 169
